nN = 10;
nR = 40;
nH = 1;

a = [[20, 16, 15, 25, 15, 16, 17, 20, 22, 21, 22, 18, 16, 21, 24, 19, 23, 15, 20, 22, 23, 22, 16, 23, 19, 17, 20, 25, 21, 16, 15, 17, 17, 17, 19, 16, 20, 16, 22, 17], [16, 20, 19, 23, 23, 18, 21, 19, 22, 17, 16, 20, 25, 17, 18, 18, 19, 15, 20, 23, 15, 24, 24, 23, 22, 18, 15, 21, 17, 24, 18, 17, 22, 23, 21, 15, 17, 16, 24, 15], [24, 22, 15, 20, 22, 20, 24, 17, 16, 18, 18, 22, 24, 25, 20, 18, 17, 15, 17, 19, 23, 22, 20, 23, 24, 18, 20, 21, 23, 23, 20, 23, 22, 16, 25, 15, 24, 20, 16, 23], [23, 23, 25, 23, 19, 21, 15, 25, 20, 21, 18, 15, 17, 21, 24, 23, 21, 16, 18, 24, 18, 16, 23, 25, 20, 16, 25, 15, 19, 23, 25, 22, 17, 25, 24, 17, 18, 17, 21, 20], [25, 21, 21, 20, 22, 15, 16, 17, 17, 20, 20, 22, 22, 22, 17, 18, 18, 20, 22, 19, 18, 17, 25, 25, 21, 15, 18, 22, 18, 16, 15, 25, 17, 23, 18, 22, 17, 24, 22, 25], [21, 22, 18, 25, 21, 15, 20, 20, 21, 17, 22, 15, 18, 16, 18, 24, 21, 18, 21, 22, 23, 17, 25, 21, 17, 24, 21, 20, 22, 15, 21, 20, 24, 22, 22, 21, 22, 16, 24, 20], [19, 18, 20, 19, 20, 20, 25, 19, 20, 23, 17, 16, 19, 24, 17, 23, 24, 17, 22, 23, 16, 22, 21, 15, 17, 19, 17, 15, 19, 25, 15, 22, 16, 23, 21, 24, 16, 24, 24, 24], [21, 21, 21, 25, 18, 25, 23, 21, 25, 17, 19, 25, 20, 25, 15, 17, 20, 23, 21, 15, 24, 20, 15, 22, 24, 15, 21, 21, 25, 25, 19, 22, 22, 16, 16, 19, 18, 21, 15, 25], [25, 18, 22, 19, 19, 18, 17, 19, 21, 17, 16, 24, 23, 25, 17, 16, 24, 19, 20, 17, 23, 19, 20, 23, 18, 18, 25, 23, 18, 19, 23, 25, 23, 24, 22, 16, 25, 23, 19, 22], [15, 25, 23, 21, 21, 21, 19, 24, 23, 21, 20, 16, 25, 19, 20, 17, 23, 22, 20, 19, 16, 18, 19, 17, 25, 17, 16, 24, 24, 20, 21, 25, 16, 23, 16, 19, 24, 17, 17, 18]];
c = [[[0, 0, 0, 0, 0, 0, 0, 0, 0, 0, 0, 0, 0, 0, 0, 0, 0, 0, 0, 0, 0, 0, 0, 0, 0, 0, 0, 0, 0, 0, 0, 0, 0, 0, 0, 0, 0, 0, 0, 0], [41, 36, 30, 47, 46, 48, 47, 49, 33, 39, 42, 44, 46, 36, 30, 46, 44, 48, 49, 39, 37, 41, 35, 37, 42, 32, 39, 48, 39, 49, 49, 40, 50, 47, 47, 38, 46, 40, 48, 44], [45, 39, 47, 43, 30, 49, 44, 31, 46, 31, 43, 39, 50, 33, 44, 37, 49, 30, 49, 33, 35, 34, 43, 50, 49, 35, 30, 49, 33, 36, 39, 34, 40, 35, 35, 31, 33, 50, 47, 42], [45, 47, 43, 44, 37, 39, 48, 43, 50, 42, 35, 38, 33, 38, 32, 36, 41, 38, 47, 37, 34, 42, 30, 38, 35, 44, 32, 46, 45, 39, 45, 48, 49, 48, 37, 36, 45, 40, 42, 41], [38, 46, 35, 45, 32, 46, 30, 42, 49, 36, 43, 37, 43, 40, 50, 44, 49, 35, 37, 42, 34, 36, 38, 37, 32, 31, 40, 40, 43, 35, 41, 43, 36, 31, 35, 31, 43, 50, 33, 46], [50, 39, 34, 37, 37, 41, 44, 31, 32, 42, 37, 47, 43, 43, 38, 36, 38, 33, 41, 32, 41, 44, 45, 39, 42, 50, 30, 36, 48, 31, 40, 33, 48, 46, 44, 40, 35, 50, 34, 38], [49, 36, 31, 31, 47, 38, 42, 44, 45, 43, 45, 35, 44, 35, 40, 41, 43, 32, 42, 33, 30, 46, 30, 30, 35, 30, 31, 50, 39, 46, 44, 33, 30, 43, 48, 44, 43, 41, 31, 42], [33, 48, 35, 50, 35, 50, 46, 34, 30, 33, 40, 46, 41, 44, 43, 34, 48, 32, 48, 36, 33, 41, 49, 47, 35, 33, 33, 34, 31, 42, 32, 30, 48, 42, 39, 48, 44, 43, 41, 33], [37, 44, 30, 36, 43, 48, 48, 37, 32, 36, 48, 31, 45, 43, 30, 33, 39, 40, 50, 47, 36, 50, 35, 47, 34, 47, 49, 44, 47, 36, 44, 39, 47, 40, 50, 43, 50, 46, 43, 44], [45, 49, 35, 35, 35, 50, 39, 36, 31, 30, 50, 36, 41, 48, 46, 32, 49, 42, 48, 41, 45, 38, 40, 50, 45, 40, 32, 46, 46, 32, 35, 49, 48, 38, 43, 46, 39, 36, 40, 44]], [[0, 0, 0, 0, 0, 0, 0, 0, 0, 0, 0, 0, 0, 0, 0, 0, 0, 0, 0, 0, 0, 0, 0, 0, 0, 0, 0, 0, 0, 0, 0, 0, 0, 0, 0, 0, 0, 0, 0, 0], [0, 0, 0, 0, 0, 0, 0, 0, 0, 0, 0, 0, 0, 0, 0, 0, 0, 0, 0, 0, 0, 0, 0, 0, 0, 0, 0, 0, 0, 0, 0, 0, 0, 0, 0, 0, 0, 0, 0, 0], [33, 36, 46, 49, 36, 40, 35, 35, 36, 40, 36, 35, 31, 32, 49, 45, 37, 40, 46, 31, 36, 36, 33, 33, 40, 41, 30, 43, 46, 31, 37, 31, 35, 31, 44, 50, 39, 47, 33, 35], [49, 33, 49, 46, 31, 47, 44, 48, 38, 35, 43, 44, 40, 43, 46, 44, 35, 30, 37, 34, 48, 34, 32, 30, 41, 49, 47, 34, 40, 44, 44, 32, 47, 31, 47, 44, 34, 39, 33, 40], [44, 34, 32, 31, 35, 50, 45, 44, 39, 42, 35, 33, 37, 41, 35, 33, 38, 47, 31, 47, 49, 43, 45, 43, 47, 44, 43, 46, 49, 44, 47, 33, 37, 33, 30, 37, 33, 36, 45, 33], [31, 31, 49, 45, 40, 50, 35, 42, 35, 38, 50, 36, 50, 35, 41, 34, 32, 30, 32, 42, 39, 36, 38, 35, 30, 48, 50, 50, 49, 34, 35, 48, 49, 42, 44, 43, 31, 30, 35, 50], [38, 35, 47, 50, 44, 32, 36, 50, 47, 34, 40, 46, 31, 41, 50, 50, 37, 47, 30, 46, 38, 34, 46, 46, 32, 44, 40, 46, 30, 50, 39, 48, 40, 36, 45, 40, 31, 30, 40, 31], [50, 37, 34, 33, 43, 43, 39, 33, 46, 39, 50, 38, 47, 39, 43, 47, 34, 42, 30, 45, 49, 38, 37, 37, 36, 46, 45, 43, 32, 48, 45, 48, 47, 36, 44, 32, 34, 37, 36, 36], [34, 30, 31, 46, 48, 40, 32, 36, 39, 37, 30, 32, 30, 46, 40, 47, 40, 34, 47, 33, 48, 41, 31, 37, 31, 44, 43, 48, 41, 38, 31, 46, 34, 42, 48, 45, 49, 32, 46, 39], [37, 47, 42, 48, 42, 37, 41, 33, 34, 48, 36, 35, 33, 36, 45, 46, 31, 50, 30, 49, 35, 32, 38, 34, 41, 36, 45, 40, 39, 36, 33, 33, 34, 46, 31, 38, 42, 45, 44, 42]], [[0, 0, 0, 0, 0, 0, 0, 0, 0, 0, 0, 0, 0, 0, 0, 0, 0, 0, 0, 0, 0, 0, 0, 0, 0, 0, 0, 0, 0, 0, 0, 0, 0, 0, 0, 0, 0, 0, 0, 0], [0, 0, 0, 0, 0, 0, 0, 0, 0, 0, 0, 0, 0, 0, 0, 0, 0, 0, 0, 0, 0, 0, 0, 0, 0, 0, 0, 0, 0, 0, 0, 0, 0, 0, 0, 0, 0, 0, 0, 0], [0, 0, 0, 0, 0, 0, 0, 0, 0, 0, 0, 0, 0, 0, 0, 0, 0, 0, 0, 0, 0, 0, 0, 0, 0, 0, 0, 0, 0, 0, 0, 0, 0, 0, 0, 0, 0, 0, 0, 0], [48, 44, 39, 44, 43, 32, 44, 31, 36, 32, 34, 41, 43, 50, 40, 34, 35, 49, 40, 43, 44, 42, 33, 48, 42, 32, 30, 40, 32, 40, 43, 43, 40, 42, 36, 37, 46, 33, 37, 33], [50, 45, 46, 36, 46, 42, 35, 39, 49, 38, 45, 49, 41, 47, 31, 41, 38, 45, 37, 31, 40, 39, 50, 41, 45, 47, 46, 38, 36, 40, 33, 39, 30, 45, 47, 46, 43, 35, 41, 44], [38, 40, 47, 50, 37, 47, 37, 47, 42, 39, 35, 48, 41, 45, 38, 41, 46, 50, 30, 41, 43, 42, 31, 39, 41, 46, 39, 37, 35, 43, 37, 33, 39, 44, 43, 39, 50, 40, 46, 35], [44, 40, 47, 37, 36, 33, 37, 32, 34, 49, 46, 32, 45, 31, 41, 50, 31, 34, 40, 39, 30, 38, 41, 39, 43, 35, 42, 36, 33, 46, 50, 34, 32, 31, 32, 31, 45, 46, 47, 37], [47, 40, 36, 49, 37, 48, 39, 43, 36, 48, 39, 45, 46, 34, 34, 45, 36, 34, 50, 48, 47, 38, 30, 40, 42, 43, 45, 32, 41, 34, 38, 40, 33, 30, 31, 37, 50, 35, 44, 39], [36, 46, 47, 38, 31, 30, 42, 50, 35, 44, 46, 50, 48, 50, 48, 31, 44, 30, 35, 35, 30, 42, 41, 30, 47, 42, 36, 38, 41, 38, 37, 43, 32, 50, 35, 50, 34, 42, 50, 39], [40, 47, 47, 45, 32, 44, 40, 35, 42, 35, 46, 34, 38, 33, 40, 32, 43, 42, 42, 32, 46, 45, 46, 32, 32, 46, 33, 34, 41, 48, 34, 41, 46, 42, 42, 31, 43, 40, 46, 40]], [[0, 0, 0, 0, 0, 0, 0, 0, 0, 0, 0, 0, 0, 0, 0, 0, 0, 0, 0, 0, 0, 0, 0, 0, 0, 0, 0, 0, 0, 0, 0, 0, 0, 0, 0, 0, 0, 0, 0, 0], [0, 0, 0, 0, 0, 0, 0, 0, 0, 0, 0, 0, 0, 0, 0, 0, 0, 0, 0, 0, 0, 0, 0, 0, 0, 0, 0, 0, 0, 0, 0, 0, 0, 0, 0, 0, 0, 0, 0, 0], [0, 0, 0, 0, 0, 0, 0, 0, 0, 0, 0, 0, 0, 0, 0, 0, 0, 0, 0, 0, 0, 0, 0, 0, 0, 0, 0, 0, 0, 0, 0, 0, 0, 0, 0, 0, 0, 0, 0, 0], [0, 0, 0, 0, 0, 0, 0, 0, 0, 0, 0, 0, 0, 0, 0, 0, 0, 0, 0, 0, 0, 0, 0, 0, 0, 0, 0, 0, 0, 0, 0, 0, 0, 0, 0, 0, 0, 0, 0, 0], [39, 48, 40, 39, 30, 39, 42, 43, 38, 35, 34, 38, 44, 46, 49, 36, 36, 36, 47, 43, 46, 37, 38, 48, 40, 30, 31, 50, 48, 39, 40, 47, 31, 34, 30, 49, 30, 38, 50, 36], [48, 46, 46, 33, 45, 40, 50, 40, 42, 46, 33, 38, 49, 30, 40, 49, 33, 46, 33, 33, 30, 36, 38, 33, 39, 42, 49, 46, 50, 40, 30, 40, 37, 47, 42, 31, 41, 39, 40, 43], [49, 49, 36, 35, 45, 31, 42, 48, 41, 33, 31, 31, 34, 48, 41, 42, 34, 44, 36, 37, 38, 38, 37, 50, 33, 30, 50, 33, 36, 47, 39, 48, 38, 44, 30, 34, 49, 38, 48, 40], [45, 34, 44, 38, 45, 41, 39, 40, 44, 42, 34, 50, 45, 36, 47, 38, 40, 47, 37, 40, 39, 40, 44, 36, 32, 48, 40, 31, 41, 38, 37, 40, 44, 32, 48, 47, 37, 45, 34, 38], [32, 38, 32, 45, 35, 38, 37, 38, 46, 38, 38, 43, 50, 32, 37, 35, 49, 36, 40, 50, 36, 47, 41, 33, 48, 34, 36, 41, 38, 44, 37, 47, 48, 43, 32, 37, 38, 42, 40, 45], [45, 43, 44, 33, 34, 49, 41, 48, 43, 48, 34, 46, 47, 38, 45, 38, 49, 38, 33, 46, 46, 50, 40, 50, 32, 50, 45, 36, 32, 49, 49, 41, 48, 33, 35, 36, 49, 44, 40, 36]], [[0, 0, 0, 0, 0, 0, 0, 0, 0, 0, 0, 0, 0, 0, 0, 0, 0, 0, 0, 0, 0, 0, 0, 0, 0, 0, 0, 0, 0, 0, 0, 0, 0, 0, 0, 0, 0, 0, 0, 0], [0, 0, 0, 0, 0, 0, 0, 0, 0, 0, 0, 0, 0, 0, 0, 0, 0, 0, 0, 0, 0, 0, 0, 0, 0, 0, 0, 0, 0, 0, 0, 0, 0, 0, 0, 0, 0, 0, 0, 0], [0, 0, 0, 0, 0, 0, 0, 0, 0, 0, 0, 0, 0, 0, 0, 0, 0, 0, 0, 0, 0, 0, 0, 0, 0, 0, 0, 0, 0, 0, 0, 0, 0, 0, 0, 0, 0, 0, 0, 0], [0, 0, 0, 0, 0, 0, 0, 0, 0, 0, 0, 0, 0, 0, 0, 0, 0, 0, 0, 0, 0, 0, 0, 0, 0, 0, 0, 0, 0, 0, 0, 0, 0, 0, 0, 0, 0, 0, 0, 0], [0, 0, 0, 0, 0, 0, 0, 0, 0, 0, 0, 0, 0, 0, 0, 0, 0, 0, 0, 0, 0, 0, 0, 0, 0, 0, 0, 0, 0, 0, 0, 0, 0, 0, 0, 0, 0, 0, 0, 0], [44, 43, 50, 38, 46, 47, 44, 46, 43, 50, 38, 35, 43, 35, 37, 46, 31, 46, 46, 45, 45, 48, 30, 33, 40, 49, 50, 37, 45, 40, 33, 32, 50, 40, 39, 35, 32, 33, 38, 32], [45, 42, 40, 45, 38, 47, 43, 38, 44, 41, 32, 50, 34, 34, 44, 30, 48, 49, 36, 47, 42, 38, 36, 46, 44, 42, 37, 38, 42, 36, 39, 31, 34, 38, 46, 31, 36, 35, 47, 45], [35, 39, 39, 36, 31, 49, 46, 50, 35, 31, 30, 33, 41, 46, 30, 44, 49, 46, 49, 40, 45, 48, 48, 45, 45, 38, 38, 37, 37, 33, 32, 45, 47, 39, 43, 48, 47, 42, 39, 38], [31, 48, 46, 45, 41, 39, 39, 43, 35, 40, 41, 47, 37, 32, 43, 39, 34, 37, 49, 39, 44, 50, 47, 46, 34, 33, 33, 33, 31, 41, 37, 37, 33, 42, 43, 31, 37, 42, 31, 45], [49, 46, 43, 48, 40, 34, 50, 37, 30, 37, 39, 43, 40, 30, 45, 49, 36, 36, 35, 36, 42, 34, 32, 45, 30, 43, 38, 39, 47, 37, 31, 43, 44, 40, 47, 46, 45, 41, 47, 50]], [[0, 0, 0, 0, 0, 0, 0, 0, 0, 0, 0, 0, 0, 0, 0, 0, 0, 0, 0, 0, 0, 0, 0, 0, 0, 0, 0, 0, 0, 0, 0, 0, 0, 0, 0, 0, 0, 0, 0, 0], [0, 0, 0, 0, 0, 0, 0, 0, 0, 0, 0, 0, 0, 0, 0, 0, 0, 0, 0, 0, 0, 0, 0, 0, 0, 0, 0, 0, 0, 0, 0, 0, 0, 0, 0, 0, 0, 0, 0, 0], [0, 0, 0, 0, 0, 0, 0, 0, 0, 0, 0, 0, 0, 0, 0, 0, 0, 0, 0, 0, 0, 0, 0, 0, 0, 0, 0, 0, 0, 0, 0, 0, 0, 0, 0, 0, 0, 0, 0, 0], [0, 0, 0, 0, 0, 0, 0, 0, 0, 0, 0, 0, 0, 0, 0, 0, 0, 0, 0, 0, 0, 0, 0, 0, 0, 0, 0, 0, 0, 0, 0, 0, 0, 0, 0, 0, 0, 0, 0, 0], [0, 0, 0, 0, 0, 0, 0, 0, 0, 0, 0, 0, 0, 0, 0, 0, 0, 0, 0, 0, 0, 0, 0, 0, 0, 0, 0, 0, 0, 0, 0, 0, 0, 0, 0, 0, 0, 0, 0, 0], [0, 0, 0, 0, 0, 0, 0, 0, 0, 0, 0, 0, 0, 0, 0, 0, 0, 0, 0, 0, 0, 0, 0, 0, 0, 0, 0, 0, 0, 0, 0, 0, 0, 0, 0, 0, 0, 0, 0, 0], [33, 36, 46, 30, 43, 44, 43, 30, 32, 34, 45, 39, 40, 36, 39, 36, 50, 48, 30, 50, 35, 42, 31, 42, 49, 48, 42, 30, 42, 42, 49, 47, 46, 34, 46, 50, 42, 44, 36, 36], [33, 45, 30, 37, 30, 48, 42, 44, 43, 47, 34, 39, 47, 50, 35, 47, 37, 46, 47, 45, 41, 32, 44, 45, 43, 45, 49, 50, 36, 35, 35, 47, 41, 45, 35, 35, 44, 38, 49, 42], [31, 34, 50, 32, 47, 44, 36, 32, 47, 30, 50, 30, 35, 33, 41, 41, 45, 30, 48, 38, 45, 38, 35, 31, 34, 34, 49, 48, 48, 45, 42, 32, 47, 39, 46, 42, 31, 44, 34, 39], [50, 34, 30, 40, 44, 47, 33, 39, 35, 31, 32, 46, 34, 45, 36, 39, 31, 33, 34, 43, 40, 40, 30, 40, 34, 46, 30, 41, 48, 44, 38, 41, 32, 44, 50, 42, 34, 34, 42, 30]], [[0, 0, 0, 0, 0, 0, 0, 0, 0, 0, 0, 0, 0, 0, 0, 0, 0, 0, 0, 0, 0, 0, 0, 0, 0, 0, 0, 0, 0, 0, 0, 0, 0, 0, 0, 0, 0, 0, 0, 0], [0, 0, 0, 0, 0, 0, 0, 0, 0, 0, 0, 0, 0, 0, 0, 0, 0, 0, 0, 0, 0, 0, 0, 0, 0, 0, 0, 0, 0, 0, 0, 0, 0, 0, 0, 0, 0, 0, 0, 0], [0, 0, 0, 0, 0, 0, 0, 0, 0, 0, 0, 0, 0, 0, 0, 0, 0, 0, 0, 0, 0, 0, 0, 0, 0, 0, 0, 0, 0, 0, 0, 0, 0, 0, 0, 0, 0, 0, 0, 0], [0, 0, 0, 0, 0, 0, 0, 0, 0, 0, 0, 0, 0, 0, 0, 0, 0, 0, 0, 0, 0, 0, 0, 0, 0, 0, 0, 0, 0, 0, 0, 0, 0, 0, 0, 0, 0, 0, 0, 0], [0, 0, 0, 0, 0, 0, 0, 0, 0, 0, 0, 0, 0, 0, 0, 0, 0, 0, 0, 0, 0, 0, 0, 0, 0, 0, 0, 0, 0, 0, 0, 0, 0, 0, 0, 0, 0, 0, 0, 0], [0, 0, 0, 0, 0, 0, 0, 0, 0, 0, 0, 0, 0, 0, 0, 0, 0, 0, 0, 0, 0, 0, 0, 0, 0, 0, 0, 0, 0, 0, 0, 0, 0, 0, 0, 0, 0, 0, 0, 0], [0, 0, 0, 0, 0, 0, 0, 0, 0, 0, 0, 0, 0, 0, 0, 0, 0, 0, 0, 0, 0, 0, 0, 0, 0, 0, 0, 0, 0, 0, 0, 0, 0, 0, 0, 0, 0, 0, 0, 0], [32, 38, 37, 31, 36, 49, 50, 41, 47, 36, 44, 50, 42, 42, 50, 34, 40, 38, 48, 39, 36, 50, 34, 48, 44, 50, 36, 48, 31, 38, 45, 41, 38, 39, 42, 38, 50, 49, 36, 43], [42, 47, 32, 48, 45, 44, 48, 32, 50, 37, 48, 48, 31, 50, 30, 44, 45, 42, 39, 43, 31, 31, 36, 44, 36, 49, 36, 50, 48, 42, 30, 31, 34, 42, 48, 46, 36, 38, 31, 44], [40, 32, 39, 42, 48, 34, 35, 45, 35, 45, 43, 34, 30, 33, 42, 33, 42, 48, 36, 47, 34, 31, 38, 46, 31, 34, 44, 43, 40, 42, 41, 31, 31, 49, 36, 41, 46, 46, 37, 39]], [[0, 0, 0, 0, 0, 0, 0, 0, 0, 0, 0, 0, 0, 0, 0, 0, 0, 0, 0, 0, 0, 0, 0, 0, 0, 0, 0, 0, 0, 0, 0, 0, 0, 0, 0, 0, 0, 0, 0, 0], [0, 0, 0, 0, 0, 0, 0, 0, 0, 0, 0, 0, 0, 0, 0, 0, 0, 0, 0, 0, 0, 0, 0, 0, 0, 0, 0, 0, 0, 0, 0, 0, 0, 0, 0, 0, 0, 0, 0, 0], [0, 0, 0, 0, 0, 0, 0, 0, 0, 0, 0, 0, 0, 0, 0, 0, 0, 0, 0, 0, 0, 0, 0, 0, 0, 0, 0, 0, 0, 0, 0, 0, 0, 0, 0, 0, 0, 0, 0, 0], [0, 0, 0, 0, 0, 0, 0, 0, 0, 0, 0, 0, 0, 0, 0, 0, 0, 0, 0, 0, 0, 0, 0, 0, 0, 0, 0, 0, 0, 0, 0, 0, 0, 0, 0, 0, 0, 0, 0, 0], [0, 0, 0, 0, 0, 0, 0, 0, 0, 0, 0, 0, 0, 0, 0, 0, 0, 0, 0, 0, 0, 0, 0, 0, 0, 0, 0, 0, 0, 0, 0, 0, 0, 0, 0, 0, 0, 0, 0, 0], [0, 0, 0, 0, 0, 0, 0, 0, 0, 0, 0, 0, 0, 0, 0, 0, 0, 0, 0, 0, 0, 0, 0, 0, 0, 0, 0, 0, 0, 0, 0, 0, 0, 0, 0, 0, 0, 0, 0, 0], [0, 0, 0, 0, 0, 0, 0, 0, 0, 0, 0, 0, 0, 0, 0, 0, 0, 0, 0, 0, 0, 0, 0, 0, 0, 0, 0, 0, 0, 0, 0, 0, 0, 0, 0, 0, 0, 0, 0, 0], [0, 0, 0, 0, 0, 0, 0, 0, 0, 0, 0, 0, 0, 0, 0, 0, 0, 0, 0, 0, 0, 0, 0, 0, 0, 0, 0, 0, 0, 0, 0, 0, 0, 0, 0, 0, 0, 0, 0, 0], [44, 49, 37, 41, 34, 34, 35, 40, 46, 43, 32, 42, 39, 40, 45, 36, 39, 42, 40, 32, 47, 37, 37, 36, 46, 35, 37, 48, 31, 43, 42, 31, 31, 34, 31, 35, 41, 47, 38, 44], [50, 41, 35, 33, 34, 46, 37, 30, 32, 50, 50, 37, 44, 49, 48, 40, 39, 43, 35, 39, 34, 49, 37, 36, 38, 50, 31, 42, 36, 31, 42, 44, 43, 44, 45, 32, 44, 36, 42, 46]], [[0, 0, 0, 0, 0, 0, 0, 0, 0, 0, 0, 0, 0, 0, 0, 0, 0, 0, 0, 0, 0, 0, 0, 0, 0, 0, 0, 0, 0, 0, 0, 0, 0, 0, 0, 0, 0, 0, 0, 0], [0, 0, 0, 0, 0, 0, 0, 0, 0, 0, 0, 0, 0, 0, 0, 0, 0, 0, 0, 0, 0, 0, 0, 0, 0, 0, 0, 0, 0, 0, 0, 0, 0, 0, 0, 0, 0, 0, 0, 0], [0, 0, 0, 0, 0, 0, 0, 0, 0, 0, 0, 0, 0, 0, 0, 0, 0, 0, 0, 0, 0, 0, 0, 0, 0, 0, 0, 0, 0, 0, 0, 0, 0, 0, 0, 0, 0, 0, 0, 0], [0, 0, 0, 0, 0, 0, 0, 0, 0, 0, 0, 0, 0, 0, 0, 0, 0, 0, 0, 0, 0, 0, 0, 0, 0, 0, 0, 0, 0, 0, 0, 0, 0, 0, 0, 0, 0, 0, 0, 0], [0, 0, 0, 0, 0, 0, 0, 0, 0, 0, 0, 0, 0, 0, 0, 0, 0, 0, 0, 0, 0, 0, 0, 0, 0, 0, 0, 0, 0, 0, 0, 0, 0, 0, 0, 0, 0, 0, 0, 0], [0, 0, 0, 0, 0, 0, 0, 0, 0, 0, 0, 0, 0, 0, 0, 0, 0, 0, 0, 0, 0, 0, 0, 0, 0, 0, 0, 0, 0, 0, 0, 0, 0, 0, 0, 0, 0, 0, 0, 0], [0, 0, 0, 0, 0, 0, 0, 0, 0, 0, 0, 0, 0, 0, 0, 0, 0, 0, 0, 0, 0, 0, 0, 0, 0, 0, 0, 0, 0, 0, 0, 0, 0, 0, 0, 0, 0, 0, 0, 0], [0, 0, 0, 0, 0, 0, 0, 0, 0, 0, 0, 0, 0, 0, 0, 0, 0, 0, 0, 0, 0, 0, 0, 0, 0, 0, 0, 0, 0, 0, 0, 0, 0, 0, 0, 0, 0, 0, 0, 0], [0, 0, 0, 0, 0, 0, 0, 0, 0, 0, 0, 0, 0, 0, 0, 0, 0, 0, 0, 0, 0, 0, 0, 0, 0, 0, 0, 0, 0, 0, 0, 0, 0, 0, 0, 0, 0, 0, 0, 0], [40, 47, 44, 39, 41, 46, 48, 32, 33, 49, 44, 39, 50, 36, 37, 49, 32, 37, 48, 35, 39, 50, 37, 40, 39, 39, 37, 49, 33, 39, 31, 36, 32, 31, 41, 36, 37, 35, 44, 37]], [[0, 0, 0, 0, 0, 0, 0, 0, 0, 0, 0, 0, 0, 0, 0, 0, 0, 0, 0, 0, 0, 0, 0, 0, 0, 0, 0, 0, 0, 0, 0, 0, 0, 0, 0, 0, 0, 0, 0, 0], [0, 0, 0, 0, 0, 0, 0, 0, 0, 0, 0, 0, 0, 0, 0, 0, 0, 0, 0, 0, 0, 0, 0, 0, 0, 0, 0, 0, 0, 0, 0, 0, 0, 0, 0, 0, 0, 0, 0, 0], [0, 0, 0, 0, 0, 0, 0, 0, 0, 0, 0, 0, 0, 0, 0, 0, 0, 0, 0, 0, 0, 0, 0, 0, 0, 0, 0, 0, 0, 0, 0, 0, 0, 0, 0, 0, 0, 0, 0, 0], [0, 0, 0, 0, 0, 0, 0, 0, 0, 0, 0, 0, 0, 0, 0, 0, 0, 0, 0, 0, 0, 0, 0, 0, 0, 0, 0, 0, 0, 0, 0, 0, 0, 0, 0, 0, 0, 0, 0, 0], [0, 0, 0, 0, 0, 0, 0, 0, 0, 0, 0, 0, 0, 0, 0, 0, 0, 0, 0, 0, 0, 0, 0, 0, 0, 0, 0, 0, 0, 0, 0, 0, 0, 0, 0, 0, 0, 0, 0, 0], [0, 0, 0, 0, 0, 0, 0, 0, 0, 0, 0, 0, 0, 0, 0, 0, 0, 0, 0, 0, 0, 0, 0, 0, 0, 0, 0, 0, 0, 0, 0, 0, 0, 0, 0, 0, 0, 0, 0, 0], [0, 0, 0, 0, 0, 0, 0, 0, 0, 0, 0, 0, 0, 0, 0, 0, 0, 0, 0, 0, 0, 0, 0, 0, 0, 0, 0, 0, 0, 0, 0, 0, 0, 0, 0, 0, 0, 0, 0, 0], [0, 0, 0, 0, 0, 0, 0, 0, 0, 0, 0, 0, 0, 0, 0, 0, 0, 0, 0, 0, 0, 0, 0, 0, 0, 0, 0, 0, 0, 0, 0, 0, 0, 0, 0, 0, 0, 0, 0, 0], [0, 0, 0, 0, 0, 0, 0, 0, 0, 0, 0, 0, 0, 0, 0, 0, 0, 0, 0, 0, 0, 0, 0, 0, 0, 0, 0, 0, 0, 0, 0, 0, 0, 0, 0, 0, 0, 0, 0, 0], [0, 0, 0, 0, 0, 0, 0, 0, 0, 0, 0, 0, 0, 0, 0, 0, 0, 0, 0, 0, 0, 0, 0, 0, 0, 0, 0, 0, 0, 0, 0, 0, 0, 0, 0, 0, 0, 0, 0, 0]]];

q = [[[5], [11], [18], [13], [21], [19], [25], [14], [9], [22], [12], [20], [21], [8], [20], [11], [14], [10], [10], [11], [23], [5], [21], [16], [22], [6], [16], [24], [18], [15], [13], [10], [15], [20], [7], [13], [13], [24], [24], [22]], [[18], [25], [6], [15], [15], [17], [25], [20], [9], [21], [24], [18], [8], [21], [23], [20], [12], [10], [11], [17], [17], [16], [12], [8], [19], [19], [24], [14], [12], [23], [6], [17], [19], [13], [21], [24], [12], [13], [22], [12]], [[24], [20], [14], [15], [18], [14], [24], [12], [9], [21], [19], [20], [10], [23], [8], [23], [22], [6], [11], [23], [9], [11], [12], [25], [13], [21], [18], [7], [16], [25], [7], [24], [25], [5], [21], [24], [14], [10], [15], [6]], [[22], [8], [11], [22], [6], [6], [20], [12], [13], [13], [18], [18], [13], [13], [5], [9], [12], [22], [5], [16], [11], [19], [7], [19], [16], [7], [8], [8], [24], [8], [18], [19], [17], [21], [24], [17], [9], [23], [19], [12]], [[22], [6], [21], [14], [12], [20], [9], [19], [15], [7], [21], [25], [21], [25], [11], [19], [19], [25], [11], [9], [5], [9], [15], [12], [13], [10], [6], [21], [13], [9], [20], [23], [19], [11], [20], [7], [17], [20], [16], [9]], [[17], [22], [24], [6], [13], [15], [11], [16], [20], [6], [21], [22], [12], [25], [14], [6], [15], [12], [13], [5], [14], [10], [5], [21], [20], [23], [19], [7], [5], [10], [8], [13], [18], [14], [16], [9], [8], [9], [17], [9]], [[5], [14], [25], [20], [18], [13], [24], [13], [22], [7], [25], [13], [9], [15], [9], [19], [12], [8], [11], [6], [14], [16], [25], [19], [24], [11], [5], [25], [24], [7], [19], [20], [14], [24], [11], [21], [12], [6], [5], [18]], [[7], [14], [5], [25], [14], [20], [25], [18], [14], [12], [20], [18], [17], [7], [15], [6], [25], [5], [13], [23], [24], [25], [13], [18], [14], [18], [5], [12], [20], [6], [12], [8], [25], [19], [19], [9], [24], [8], [21], [22]], [[11], [10], [24], [25], [20], [21], [20], [21], [11], [20], [10], [9], [13], [17], [21], [18], [16], [6], [21], [18], [21], [25], [11], [7], [20], [21], [22], [7], [15], [11], [14], [15], [21], [22], [10], [12], [7], [14], [9], [14]], [[19], [21], [20], [16], [10], [25], [22], [7], [6], [17], [17], [22], [23], [17], [20], [18], [24], [24], [15], [15], [10], [14], [11], [7], [9], [23], [6], [13], [23], [23], [23], [20], [14], [8], [10], [14], [10], [21], [8], [7]]];
Q = [[49], [52], [51], [45], [48], [44], [48], [50], [50], [50]];
